p edge 500 2500
e 1 8
e 1 366
e 1 374
e 1 436
e 1 495
e 2 5
e 2 12
e 2 157
e 2 195
e 2 298
e 3 54
e 3 108
e 3 159
e 3 380
e 3 490
e 4 223
e 4 278
e 4 471
e 4 475
e 4 498
e 5 79
e 5 79
e 5 196
e 5 253
e 5 401
e 6 186
e 6 279
e 6 326
e 6 329
e 6 461
e 7 88
e 7 109
e 7 168
e 7 382
e 7 452
e 8 35
e 8 67
e 8 102
e 8 166
e 8 485
e 9 38
e 9 171
e 9 260
e 9 319
e 9 344
e 10 46
e 10 175
e 10 231
e 10 263
e 10 272
e 11 17
e 11 136
e 11 157
e 11 205
e 11 294
e 12 35
e 12 79
e 12 179
e 12 291
e 12 358
e 13 9
e 13 44
e 13 114
e 13 288
e 13 474
e 14 23
e 14 46
e 14 90
e 14 356
e 14 392
e 15 70
e 15 125
e 15 134
e 15 299
e 15 483
e 16 17
e 16 173
e 16 252
e 16 304
e 16 461
e 17 194
e 17 195
e 17 277
e 17 400
e 17 423
e 18 130
e 18 168
e 18 239
e 18 449
e 18 465
e 19 122
e 19 138
e 19 258
e 19 265
e 19 443
e 20 52
e 20 220
e 20 262
e 20 401
e 20 475
e 21 151
e 21 226
e 21 296
e 21 375
e 21 413
e 22 26
e 22 118
e 22 410
e 22 443
e 22 458
e 23 54
e 23 94
e 23 94
e 23 304
e 23 360
e 24 5
e 24 345
e 24 358
e 24 377
e 24 398
e 25 41
e 25 51
e 25 68
e 25 119
e 25 256
e 26 32
e 26 75
e 26 84
e 26 237
e 26 289
e 27 57
e 27 142
e 27 252
e 27 327
e 27 353
e 28 17
e 28 42
e 28 89
e 28 108
e 28 337
e 29 20
e 29 315
e 29 330
e 29 339
e 29 370
e 30 26
e 30 124
e 30 216
e 30 280
e 30 433
e 31 76
e 31 217
e 31 267
e 31 304
e 31 432
e 32 136
e 32 141
e 32 160
e 32 191
e 32 414
e 33 3
e 33 99
e 33 247
e 33 331
e 33 415
e 34 127
e 34 131
e 34 272
e 34 355
e 34 414
e 35 165
e 35 182
e 35 357
e 35 430
e 35 470
e 36 122
e 36 301
e 36 353
e 36 360
e 36 436
e 37 95
e 37 191
e 37 220
e 37 259
e 37 482
e 38 98
e 38 106
e 38 322
e 38 334
e 38 445
e 39 21
e 39 130
e 39 235
e 39 381
e 39 489
e 40 139
e 40 148
e 40 211
e 40 267
e 40 414
e 41 217
e 41 347
e 41 366
e 41 393
e 41 416
e 42 159
e 42 270
e 42 419
e 42 470
e 42 480
e 43 134
e 43 261
e 43 303
e 43 325
e 43 424
e 44 29
e 44 62
e 44 212
e 44 215
e 44 486
e 45 43
e 45 148
e 45 176
e 45 283
e 45 287
e 46 112
e 46 143
e 46 232
e 46 322
e 46 472
e 47 107
e 47 408
e 47 416
e 47 460
e 47 484
e 48 20
e 48 26
e 48 46
e 48 243
e 48 244
e 49 435
e 49 439
e 49 441
e 49 449
e 49 494
e 50 56
e 50 68
e 50 359
e 50 411
e 50 428
e 51 41
e 51 59
e 51 134
e 51 382
e 51 396
e 52 102
e 52 142
e 52 197
e 52 262
e 52 496
e 53 48
e 53 332
e 53 415
e 53 478
e 53 496
e 54 19
e 54 109
e 54 317
e 54 330
e 54 379
e 55 76
e 55 102
e 55 111
e 55 288
e 55 362
e 56 159
e 56 198
e 56 344
e 56 408
e 56 455
e 57 146
e 57 284
e 57 363
e 57 445
e 57 500
e 58 46
e 58 210
e 58 382
e 58 425
e 58 442
e 59 66
e 59 175
e 59 196
e 59 293
e 59 465
e 60 75
e 60 244
e 60 414
e 60 436
e 60 490
e 61 205
e 61 236
e 61 335
e 61 409
e 61 490
e 62 34
e 62 77
e 62 79
e 62 152
e 62 220
e 63 81
e 63 253
e 63 279
e 63 321
e 63 488
e 64 185
e 64 423
e 64 434
e 64 448
e 64 479
e 65 84
e 65 129
e 65 182
e 65 274
e 65 498
e 66 71
e 66 77
e 66 107
e 66 422
e 66 484
e 67 31
e 67 96
e 67 184
e 67 274
e 67 489
e 68 150
e 68 217
e 68 254
e 68 349
e 68 383
e 69 162
e 69 190
e 69 238
e 69 330
e 69 421
e 70 233
e 70 241
e 70 306
e 70 341
e 70 409
e 71 107
e 71 329
e 71 346
e 71 456
e 71 478
e 72 146
e 72 230
e 72 293
e 72 365
e 72 376
e 73 5
e 73 21
e 73 47
e 73 356
e 73 357
e 74 101
e 74 130
e 74 221
e 74 339
e 74 427
e 75 78
e 75 267
e 75 361
e 75 460
e 75 494
e 76 20
e 76 29
e 76 33
e 76 342
e 76 459
e 77 143
e 77 270
e 77 301
e 77 383
e 77 392
e 78 84
e 78 107
e 78 356
e 78 363
e 78 484
e 79 164
e 79 208
e 79 392
e 79 405
e 79 500
e 80 28
e 80 120
e 80 228
e 80 426
e 80 473
e 81 11
e 81 18
e 81 328
e 81 430
e 81 436
e 82 65
e 82 142
e 82 206
e 82 209
e 82 238
e 83 84
e 83 243
e 83 454
e 83 475
e 83 495
e 84 27
e 84 96
e 84 160
e 84 425
e 84 482
e 85 149
e 85 163
e 85 240
e 85 282
e 85 302
e 86 11
e 86 70
e 86 176
e 86 285
e 86 351
e 87 69
e 87 328
e 87 411
e 87 419
e 87 448
e 88 71
e 88 148
e 88 243
e 88 253
e 88 435
e 89 35
e 89 394
e 89 435
e 89 440
e 89 500
e 90 6
e 90 30
e 90 69
e 90 243
e 90 493
e 91 63
e 91 88
e 91 113
e 91 389
e 91 446
e 92 279
e 92 311
e 92 400
e 92 413
e 92 442
e 93 66
e 93 152
e 93 202
e 93 304
e 93 442
e 94 138
e 94 179
e 94 338
e 94 345
e 94 373
e 95 97
e 95 293
e 95 340
e 95 354
e 95 465
e 96 69
e 96 262
e 96 375
e 96 441
e 96 473
e 97 53
e 97 103
e 97 197
e 97 226
e 97 342
e 98 46
e 98 82
e 98 219
e 98 266
e 98 431
e 99 16
e 99 180
e 99 287
e 99 295
e 99 488
e 100 186
e 100 207
e 100 404
e 100 414
e 100 473
e 101 77
e 101 210
e 101 217
e 101 239
e 101 479
e 102 18
e 102 89
e 102 214
e 102 389
e 102 485
e 103 26
e 103 29
e 103 30
e 103 176
e 103 234
e 104 53
e 104 98
e 104 252
e 104 377
e 104 437
e 105 249
e 105 341
e 105 423
e 105 478
e 105 490
e 106 48
e 106 56
e 106 321
e 106 366
e 106 415
e 107 61
e 107 144
e 107 370
e 107 398
e 107 424
e 108 89
e 108 267
e 108 284
e 108 329
e 108 383
e 109 69
e 109 183
e 109 293
e 109 311
e 109 352
e 110 26
e 110 148
e 110 376
e 110 405
e 110 405
e 111 2
e 111 51
e 111 81
e 111 172
e 111 369
e 112 91
e 112 131
e 112 302
e 112 358
e 112 406
e 113 7
e 113 30
e 113 38
e 113 133
e 113 372
e 114 121
e 114 147
e 114 411
e 114 445
e 114 453
e 115 5
e 115 54
e 115 124
e 115 385
e 115 491
e 116 126
e 116 288
e 116 318
e 116 452
e 116 477
e 117 20
e 117 62
e 117 98
e 117 269
e 117 473
e 118 121
e 118 146
e 118 356
e 118 377
e 118 424
e 119 196
e 119 225
e 119 231
e 119 320
e 119 350
e 120 134
e 120 434
e 120 480
e 120 488
e 120 494
e 121 10
e 121 18
e 121 66
e 121 113
e 121 218
e 122 287
e 122 306
e 122 310
e 122 338
e 122 428
e 123 305
e 123 328
e 123 433
e 123 460
e 123 482
e 124 219
e 124 236
e 124 269
e 124 282
e 124 454
e 125 31
e 125 191
e 125 203
e 125 255
e 125 402
e 126 4
e 126 48
e 126 95
e 126 238
e 126 420
e 127 2
e 127 249
e 127 296
e 127 462
e 127 489
e 128 254
e 128 276
e 128 335
e 128 396
e 128 461
e 129 52
e 129 137
e 129 331
e 129 406
e 129 442
e 130 103
e 130 241
e 130 253
e 130 258
e 130 421
e 131 36
e 131 91
e 131 212
e 131 225
e 131 230
e 132 164
e 132 271
e 132 282
e 132 358
e 132 378
e 133 159
e 133 260
e 133 260
e 133 324
e 133 353
e 134 95
e 134 96
e 134 105
e 134 319
e 134 497
e 135 199
e 135 206
e 135 401
e 135 437
e 135 459
e 136 16
e 136 18
e 136 19
e 136 28
e 136 123
e 137 174
e 137 182
e 137 309
e 137 348
e 137 414
e 138 186
e 138 400
e 138 411
e 138 447
e 138 458
e 139 69
e 139 411
e 139 421
e 139 446
e 139 463
e 140 238
e 140 244
e 140 268
e 140 379
e 140 446
e 141 14
e 141 68
e 141 198
e 141 205
e 141 389
e 142 53
e 142 60
e 142 110
e 142 363
e 142 494
e 143 68
e 143 71
e 143 246
e 143 273
e 143 398
e 144 20
e 144 45
e 144 72
e 144 86
e 144 140
e 145 94
e 145 285
e 145 310
e 145 448
e 145 481
e 146 156
e 146 346
e 146 358
e 146 494
e 146 496
e 147 33
e 147 224
e 147 258
e 147 377
e 147 456
e 148 26
e 148 52
e 148 169
e 148 256
e 148 471
e 149 129
e 149 225
e 149 458
e 149 484
e 149 496
e 150 86
e 150 341
e 150 365
e 150 445
e 150 492
e 151 194
e 151 210
e 151 213
e 151 411
e 151 462
e 152 15
e 152 109
e 152 133
e 152 348
e 152 349
e 153 6
e 153 148
e 153 226
e 153 419
e 153 420
e 154 23
e 154 61
e 154 71
e 154 161
e 154 266
e 155 379
e 155 384
e 155 399
e 155 422
e 155 430
e 156 6
e 156 252
e 156 371
e 156 404
e 156 480
e 157 2
e 157 87
e 157 108
e 157 194
e 157 375
e 158 32
e 158 225
e 158 280
e 158 451
e 158 465
e 159 209
e 159 211
e 159 290
e 159 341
e 159 362
e 160 42
e 160 189
e 160 193
e 160 335
e 160 398
e 161 168
e 161 194
e 161 322
e 161 419
e 161 433
e 162 206
e 162 219
e 162 258
e 162 307
e 162 341
e 163 58
e 163 344
e 163 348
e 163 441
e 163 500
e 164 63
e 164 175
e 164 251
e 164 396
e 164 416
e 165 34
e 165 135
e 165 221
e 165 338
e 165 462
e 166 85
e 166 93
e 166 245
e 166 297
e 166 298
e 167 7
e 167 86
e 167 216
e 167 433
e 167 474
e 168 15
e 168 199
e 168 336
e 168 352
e 168 355
e 169 60
e 169 140
e 169 268
e 169 310
e 169 469
e 170 28
e 170 188
e 170 206
e 170 266
e 170 446
e 171 270
e 171 355
e 171 380
e 171 402
e 171 485
e 172 37
e 172 76
e 172 171
e 172 347
e 172 482
e 173 27
e 173 62
e 173 391
e 173 498
e 173 499
e 174 23
e 174 90
e 174 188
e 174 294
e 174 296
e 175 125
e 175 248
e 175 302
e 175 312
e 175 348
e 176 141
e 176 167
e 176 214
e 176 321
e 176 353
e 177 39
e 177 133
e 177 274
e 177 306
e 177 482
e 178 96
e 178 97
e 178 103
e 178 310
e 178 362
e 179 79
e 179 94
e 179 222
e 179 241
e 179 497
e 180 115
e 180 241
e 180 393
e 180 425
e 180 486
e 181 54
e 181 113
e 181 135
e 181 317
e 181 484
e 182 76
e 182 132
e 182 151
e 182 174
e 182 239
e 183 25
e 183 137
e 183 276
e 183 285
e 183 462
e 184 114
e 184 310
e 184 415
e 184 480
e 184 489
e 185 137
e 185 143
e 185 152
e 185 231
e 185 240
e 186 4
e 186 49
e 186 244
e 186 248
e 186 412
e 187 20
e 187 96
e 187 166
e 187 318
e 187 479
e 188 57
e 188 62
e 188 93
e 188 277
e 188 358
e 189 37
e 189 111
e 189 193
e 189 196
e 189 222
e 190 38
e 190 85
e 190 109
e 190 324
e 190 372
e 191 81
e 191 97
e 191 154
e 191 185
e 191 313
e 192 57
e 192 165
e 192 258
e 192 267
e 192 301
e 193 114
e 193 271
e 193 392
e 193 401
e 193 404
e 194 266
e 194 370
e 194 440
e 194 465
e 194 500
e 195 47
e 195 169
e 195 337
e 195 363
e 195 418
e 196 132
e 196 194
e 196 230
e 196 277
e 196 419
e 197 29
e 197 53
e 197 62
e 197 238
e 197 350
e 198 22
e 198 67
e 198 221
e 198 231
e 198 456
e 199 70
e 199 236
e 199 257
e 199 406
e 199 470
e 200 228
e 200 355
e 200 370
e 200 402
e 200 480
e 201 125
e 201 235
e 201 262
e 201 314
e 201 494
e 202 53
e 202 86
e 202 310
e 202 323
e 202 418
e 203 146
e 203 185
e 203 254
e 203 335
e 203 417
e 204 191
e 204 208
e 204 429
e 204 455
e 204 464
e 205 193
e 205 313
e 205 342
e 205 402
e 205 484
e 206 34
e 206 215
e 206 264
e 206 291
e 206 484
e 207 36
e 207 186
e 207 220
e 207 263
e 207 360
e 208 44
e 208 74
e 208 81
e 208 94
e 208 198
e 209 43
e 209 99
e 209 194
e 209 329
e 209 500
e 210 20
e 210 204
e 210 273
e 210 403
e 210 414
e 211 222
e 211 309
e 211 350
e 211 354
e 211 392
e 212 98
e 212 172
e 212 181
e 212 263
e 212 317
e 213 15
e 213 159
e 213 365
e 213 482
e 213 499
e 214 79
e 214 157
e 214 161
e 214 467
e 214 483
e 215 54
e 215 127
e 215 229
e 215 368
e 215 466
e 216 175
e 216 176
e 216 300
e 216 346
e 216 451
e 217 3
e 217 70
e 217 268
e 217 427
e 217 444
e 218 216
e 218 273
e 218 287
e 218 358
e 218 474
e 219 138
e 219 218
e 219 315
e 219 376
e 219 493
e 220 142
e 220 161
e 220 236
e 220 273
e 220 389
e 221 8
e 221 16
e 221 86
e 221 184
e 221 254
e 222 150
e 222 164
e 222 384
e 222 420
e 222 473
e 223 99
e 223 183
e 223 231
e 223 383
e 223 442
e 224 28
e 224 82
e 224 126
e 224 257
e 224 259
e 225 195
e 225 197
e 225 320
e 225 378
e 225 471
e 226 17
e 226 38
e 226 69
e 226 145
e 226 413
e 227 9
e 227 21
e 227 117
e 227 362
e 227 402
e 228 15
e 228 137
e 228 235
e 228 251
e 228 356
e 229 22
e 229 75
e 229 125
e 229 391
e 229 494
e 230 38
e 230 217
e 230 393
e 230 420
e 230 467
e 231 378
e 231 395
e 231 417
e 231 454
e 231 475
e 232 201
e 232 303
e 232 341
e 232 441
e 232 481
e 233 192
e 233 218
e 233 234
e 233 260
e 233 265
e 234 94
e 234 218
e 234 266
e 234 405
e 234 456
e 235 115
e 235 275
e 235 346
e 235 358
e 235 368
e 236 2
e 236 75
e 236 334
e 236 420
e 236 481
e 237 105
e 237 210
e 237 266
e 237 391
e 237 466
e 238 163
e 238 184
e 238 232
e 238 439
e 238 500
e 239 246
e 239 266
e 239 383
e 239 449
e 239 468
e 240 103
e 240 106
e 240 187
e 240 321
e 240 323
e 241 156
e 241 202
e 241 295
e 241 409
e 241 446
e 242 2
e 242 107
e 242 250
e 242 320
e 242 477
e 243 39
e 243 448
e 243 453
e 243 468
e 243 482
e 244 42
e 244 114
e 244 224
e 244 302
e 244 431
e 245 44
e 245 72
e 245 140
e 245 433
e 245 489
e 246 23
e 246 26
e 246 58
e 246 175
e 246 424
e 247 169
e 247 326
e 247 337
e 247 397
e 247 440
e 248 80
e 248 153
e 248 219
e 248 355
e 248 428
e 249 123
e 249 222
e 249 354
e 249 472
e 249 479
e 250 25
e 250 152
e 250 333
e 250 430
e 250 461
e 251 29
e 251 64
e 251 100
e 251 180
e 251 382
e 252 55
e 252 253
e 252 446
e 252 458
e 252 459
e 253 148
e 253 206
e 253 209
e 253 370
e 253 450
e 254 83
e 254 293
e 254 415
e 254 448
e 254 476
e 255 110
e 255 311
e 255 316
e 255 408
e 255 461
e 256 8
e 256 57
e 256 335
e 256 381
e 256 468
e 257 44
e 257 153
e 257 173
e 257 212
e 257 380
e 258 84
e 258 113
e 258 195
e 258 198
e 258 309
e 259 43
e 259 141
e 259 146
e 259 387
e 259 500
e 260 250
e 260 297
e 260 398
e 260 451
e 260 467
e 261 166
e 261 175
e 261 375
e 261 400
e 261 455
e 262 37
e 262 141
e 262 307
e 262 419
e 262 458
e 263 130
e 263 234
e 263 296
e 263 303
e 263 475
e 264 35
e 264 53
e 264 186
e 264 246
e 264 487
e 265 77
e 265 126
e 265 141
e 265 417
e 265 464
e 266 226
e 266 238
e 266 268
e 266 324
e 266 336
e 267 180
e 267 230
e 267 297
e 267 333
e 267 435
e 268 63
e 268 79
e 268 184
e 268 205
e 268 229
e 269 186
e 269 305
e 269 378
e 269 432
e 269 490
e 270 173
e 270 247
e 270 426
e 270 445
e 270 456
e 271 41
e 271 93
e 271 282
e 271 302
e 271 413
e 272 22
e 272 27
e 272 256
e 272 340
e 272 409
e 273 147
e 273 168
e 273 355
e 273 437
e 273 481
e 274 39
e 274 100
e 274 237
e 274 281
e 274 466
e 275 146
e 275 281
e 275 288
e 275 325
e 275 366
e 276 8
e 276 167
e 276 224
e 276 361
e 276 497
e 277 29
e 277 325
e 277 374
e 277 398
e 277 497
e 278 46
e 278 72
e 278 336
e 278 354
e 278 394
e 279 98
e 279 200
e 279 339
e 279 353
e 279 391
e 280 58
e 280 146
e 280 231
e 280 250
e 280 360
e 281 2
e 281 94
e 281 358
e 281 456
e 281 479
e 282 60
e 282 78
e 282 240
e 282 347
e 282 444
e 283 31
e 283 76
e 283 158
e 283 171
e 283 205
e 284 27
e 284 160
e 284 280
e 284 306
e 284 436
e 285 186
e 285 253
e 285 333
e 285 429
e 285 485
e 286 104
e 286 150
e 286 201
e 286 408
e 286 432
e 287 91
e 287 93
e 287 112
e 287 122
e 287 342
e 288 237
e 288 292
e 288 338
e 288 444
e 288 481
e 289 144
e 289 215
e 289 251
e 289 343
e 289 432
e 290 97
e 290 268
e 290 343
e 290 391
e 290 439
e 291 14
e 291 47
e 291 48
e 291 178
e 291 298
e 292 134
e 292 176
e 292 190
e 292 224
e 292 301
e 293 171
e 293 174
e 293 210
e 293 280
e 293 282
e 294 44
e 294 81
e 294 301
e 294 454
e 294 482
e 295 55
e 295 73
e 295 75
e 295 237
e 295 332
e 296 161
e 296 180
e 296 227
e 296 245
e 296 379
e 297 28
e 297 144
e 297 370
e 297 379
e 297 431
e 298 120
e 298 161
e 298 222
e 298 289
e 298 498
e 299 135
e 299 147
e 299 174
e 299 297
e 299 475
e 300 9
e 300 175
e 300 454
e 300 460
e 300 486
e 301 11
e 301 87
e 301 128
e 301 443
e 301 482
e 302 10
e 302 69
e 302 103
e 302 436
e 302 486
e 303 5
e 303 140
e 303 223
e 303 417
e 303 493
e 304 13
e 304 36
e 304 83
e 304 254
e 304 344
e 305 113
e 305 304
e 305 392
e 305 415
e 305 436
e 306 232
e 306 412
e 306 464
e 306 469
e 306 490
e 307 85
e 307 119
e 307 316
e 307 380
e 307 411
e 308 152
e 308 218
e 308 228
e 308 275
e 308 390
e 309 43
e 309 108
e 309 165
e 309 171
e 309 477
e 310 8
e 310 389
e 310 397
e 310 405
e 310 470
e 311 173
e 311 230
e 311 245
e 311 336
e 311 450
e 312 185
e 312 323
e 312 327
e 312 371
e 312 428
e 313 40
e 313 130
e 313 137
e 313 446
e 313 483
e 314 51
e 314 123
e 314 311
e 314 401
e 314 435
e 315 2
e 315 219
e 315 250
e 315 395
e 315 401
e 316 102
e 316 284
e 316 299
e 316 376
e 316 483
e 317 8
e 317 26
e 317 194
e 317 260
e 317 321
e 318 242
e 318 282
e 318 328
e 318 396
e 318 410
e 319 245
e 319 454
e 319 486
e 319 490
e 319 492
e 320 115
e 320 170
e 320 300
e 320 417
e 320 468
e 321 4
e 321 74
e 321 97
e 321 104
e 321 308
e 322 31
e 322 177
e 322 283
e 322 314
e 322 430
e 323 2
e 323 7
e 323 132
e 323 208
e 323 234
e 324 65
e 324 152
e 324 343
e 324 455
e 324 489
e 325 299
e 325 366
e 325 397
e 325 462
e 325 472
e 326 162
e 326 208
e 326 210
e 326 452
e 326 499
e 327 201
e 327 304
e 327 340
e 327 371
e 327 441
e 328 22
e 328 209
e 328 250
e 328 374
e 328 419
e 329 16
e 329 64
e 329 118
e 329 377
e 329 445
e 330 131
e 330 190
e 330 228
e 330 489
e 330 500
e 331 81
e 331 91
e 331 191
e 331 249
e 331 489
e 332 45
e 332 203
e 332 232
e 332 237
e 332 329
e 333 1
e 333 45
e 333 47
e 333 76
e 333 359
e 334 54
e 334 61
e 334 68
e 334 268
e 334 497
e 335 134
e 335 289
e 335 364
e 335 395
e 335 490
e 336 7
e 336 13
e 336 155
e 336 363
e 336 498
e 337 310
e 337 331
e 337 332
e 337 383
e 337 425
e 338 172
e 338 313
e 338 364
e 338 389
e 338 424
e 339 52
e 339 99
e 339 115
e 339 153
e 339 321
e 340 11
e 340 28
e 340 106
e 340 476
e 340 482
e 341 72
e 341 151
e 341 369
e 341 436
e 341 458
e 342 18
e 342 30
e 342 56
e 342 234
e 342 420
e 343 61
e 343 367
e 343 373
e 343 397
e 343 410
e 344 91
e 344 226
e 344 260
e 344 274
e 344 430
e 345 83
e 345 274
e 345 384
e 345 457
e 345 460
e 346 86
e 346 143
e 346 145
e 346 323
e 346 407
e 347 21
e 347 72
e 347 194
e 347 239
e 347 328
e 348 99
e 348 151
e 348 252
e 348 312
e 348 384
e 349 22
e 349 40
e 349 109
e 349 116
e 349 478
e 350 206
e 350 211
e 350 294
e 350 388
e 350 447
e 351 78
e 351 102
e 351 115
e 351 126
e 351 343
e 352 45
e 352 45
e 352 114
e 352 155
e 352 388
e 353 145
e 353 229
e 353 318
e 353 323
e 353 497
e 354 255
e 354 256
e 354 276
e 354 288
e 354 345
e 355 11
e 355 128
e 355 333
e 355 386
e 355 416
e 356 115
e 356 336
e 356 366
e 356 407
e 356 444
e 357 154
e 357 240
e 357 285
e 357 385
e 357 421
e 358 1
e 358 90
e 358 132
e 358 294
e 358 452
e 359 40
e 359 61
e 359 204
e 359 215
e 359 248
e 360 50
e 360 144
e 360 180
e 360 265
e 360 443
e 361 67
e 361 118
e 361 177
e 361 262
e 361 461
e 362 284
e 362 305
e 362 401
e 362 411
e 362 412
e 363 85
e 363 179
e 363 420
e 363 422
e 363 484
e 364 36
e 364 45
e 364 136
e 364 213
e 364 363
e 365 20
e 365 41
e 365 136
e 365 269
e 365 492
e 366 137
e 366 179
e 366 267
e 366 350
e 366 461
e 367 16
e 367 236
e 367 245
e 367 372
e 367 458
e 368 75
e 368 191
e 368 379
e 368 424
e 368 491
e 369 178
e 369 188
e 369 235
e 369 258
e 369 452
e 370 88
e 370 169
e 370 172
e 370 251
e 370 498
e 371 92
e 371 95
e 371 170
e 371 199
e 371 419
e 372 106
e 372 198
e 372 230
e 372 306
e 372 306
e 373 59
e 373 101
e 373 189
e 373 376
e 373 441
e 374 61
e 374 177
e 374 237
e 374 274
e 374 428
e 375 143
e 375 238
e 375 265
e 375 333
e 375 408
e 376 60
e 376 109
e 376 212
e 376 312
e 376 334
e 377 147
e 377 200
e 377 438
e 377 443
e 377 499
e 378 109
e 378 144
e 378 161
e 378 390
e 378 463
e 379 52
e 379 219
e 379 256
e 379 414
e 379 449
e 380 115
e 380 298
e 380 337
e 380 358
e 380 416
e 381 259
e 381 350
e 381 357
e 381 438
e 381 456
e 382 192
e 382 248
e 382 278
e 382 445
e 382 484
e 383 14
e 383 15
e 383 243
e 383 278
e 383 386
e 384 28
e 384 36
e 384 178
e 384 297
e 384 428
e 385 295
e 385 310
e 385 332
e 385 370
e 385 465
e 386 203
e 386 278
e 386 290
e 386 344
e 386 425
e 387 99
e 387 186
e 387 273
e 387 400
e 387 477
e 388 40
e 388 225
e 388 288
e 388 331
e 388 335
e 389 191
e 389 309
e 389 331
e 389 347
e 389 426
e 390 117
e 390 203
e 390 232
e 390 430
e 390 488
e 391 69
e 391 172
e 391 246
e 391 354
e 391 493
e 392 2
e 392 13
e 392 99
e 392 273
e 392 320
e 393 3
e 393 20
e 393 86
e 393 89
e 393 297
e 394 14
e 394 129
e 394 141
e 394 342
e 394 347
e 395 27
e 395 52
e 395 84
e 395 297
e 395 413
e 396 100
e 396 160
e 396 299
e 396 361
e 396 453
e 397 86
e 397 381
e 397 391
e 397 404
e 397 481
e 398 140
e 398 209
e 398 263
e 398 359
e 398 367
e 399 64
e 399 160
e 399 306
e 399 385
e 399 434
e 400 56
e 400 65
e 400 213
e 400 284
e 400 431
e 401 19
e 401 59
e 401 299
e 401 384
e 401 443
e 402 225
e 402 257
e 402 362
e 402 405
e 402 439
e 403 155
e 403 251
e 403 262
e 403 351
e 403 489
e 404 112
e 404 303
e 404 306
e 404 367
e 404 500
e 405 77
e 405 85
e 405 109
e 405 282
e 405 286
e 406 48
e 406 149
e 406 285
e 406 334
e 406 467
e 407 30
e 407 70
e 407 313
e 407 442
e 407 446
e 408 125
e 408 159
e 408 295
e 408 372
e 408 391
e 409 35
e 409 143
e 409 169
e 409 274
e 409 457
e 410 48
e 410 247
e 410 351
e 410 449
e 410 492
e 411 64
e 411 101
e 411 388
e 411 453
e 411 456
e 412 39
e 412 261
e 412 324
e 412 387
e 412 430
e 413 38
e 413 46
e 413 339
e 413 400
e 413 446
e 414 36
e 414 131
e 414 223
e 414 237
e 414 356
e 415 124
e 415 183
e 415 200
e 415 349
e 415 477
e 416 43
e 416 63
e 416 91
e 416 176
e 416 341
e 417 131
e 417 149
e 417 205
e 417 216
e 417 247
e 418 3
e 418 66
e 418 167
e 418 195
e 418 252
e 419 82
e 419 139
e 419 150
e 419 221
e 419 378
e 420 12
e 420 83
e 420 201
e 420 308
e 420 410
e 421 100
e 421 105
e 421 257
e 421 291
e 421 401
e 422 111
e 422 135
e 422 235
e 422 308
e 422 493
e 423 27
e 423 227
e 423 286
e 423 311
e 423 461
e 424 78
e 424 367
e 424 367
e 424 375
e 424 401
e 425 34
e 425 80
e 425 113
e 425 117
e 425 393
e 426 160
e 426 200
e 426 283
e 426 322
e 426 331
e 427 71
e 427 134
e 427 199
e 427 286
e 427 309
e 428 230
e 428 256
e 428 397
e 428 399
e 428 497
e 429 5
e 429 187
e 429 334
e 429 336
e 429 350
e 430 10
e 430 205
e 430 350
e 430 420
e 430 446
e 431 17
e 431 31
e 431 95
e 431 109
e 431 376
e 432 333
e 432 361
e 432 392
e 432 461
e 432 477
e 433 153
e 433 296
e 433 363
e 433 426
e 433 471
e 434 62
e 434 85
e 434 86
e 434 245
e 434 326
e 435 24
e 435 43
e 435 47
e 435 190
e 435 315
e 436 46
e 436 123
e 436 274
e 436 292
e 436 396
e 437 81
e 437 296
e 437 438
e 437 458
e 437 500
e 438 56
e 438 87
e 438 256
e 438 373
e 438 497
e 439 224
e 439 319
e 439 364
e 439 425
e 439 441
e 440 53
e 440 131
e 440 138
e 440 270
e 440 316
e 441 22
e 441 56
e 441 140
e 441 142
e 441 415
e 442 227
e 442 328
e 442 385
e 442 399
e 442 468
e 443 51
e 443 117
e 443 269
e 443 343
e 443 444
e 444 60
e 444 91
e 444 92
e 444 299
e 444 379
e 445 49
e 445 204
e 445 208
e 445 231
e 445 414
e 446 63
e 446 138
e 446 156
e 446 371
e 446 428
e 447 62
e 447 246
e 447 374
e 447 377
e 447 446
e 448 24
e 448 229
e 448 284
e 448 366
e 448 498
e 449 264
e 449 276
e 449 326
e 449 360
e 449 444
e 450 12
e 450 21
e 450 170
e 450 327
e 450 389
e 451 12
e 451 62
e 451 137
e 451 212
e 451 290
e 452 32
e 452 57
e 452 91
e 452 228
e 452 350
e 453 112
e 453 128
e 453 173
e 453 228
e 453 283
e 454 40
e 454 153
e 454 310
e 454 368
e 454 372
e 455 98
e 455 100
e 455 137
e 455 260
e 455 365
e 456 1
e 456 28
e 456 63
e 456 318
e 456 448
e 457 6
e 457 177
e 457 202
e 457 276
e 457 355
e 458 27
e 458 137
e 458 200
e 458 287
e 458 375
e 459 12
e 459 18
e 459 264
e 459 272
e 459 317
e 460 74
e 460 91
e 460 206
e 460 207
e 460 218
e 461 37
e 461 187
e 461 378
e 461 496
e 461 500
e 462 4
e 462 65
e 462 410
e 462 428
e 462 463
e 463 281
e 463 362
e 463 400
e 463 428
e 463 453
e 464 133
e 464 179
e 464 315
e 464 355
e 464 472
e 465 172
e 465 209
e 465 260
e 465 359
e 465 398
e 466 83
e 466 199
e 466 367
e 466 440
e 466 450
e 467 36
e 467 73
e 467 213
e 467 384
e 467 446
e 468 105
e 468 295
e 468 302
e 468 309
e 468 418
e 469 273
e 469 300
e 469 333
e 469 345
e 469 456
e 470 95
e 470 189
e 470 255
e 470 412
e 470 459
e 471 134
e 471 163
e 471 321
e 471 327
e 471 456
e 472 65
e 472 290
e 472 340
e 472 454
e 472 477
e 473 149
e 473 199
e 473 299
e 473 400
e 473 463
e 474 65
e 474 280
e 474 316
e 474 334
e 474 412
e 475 124
e 475 167
e 475 338
e 475 393
e 475 448
e 476 39
e 476 108
e 476 225
e 476 272
e 476 452
e 477 38
e 477 76
e 477 79
e 477 214
e 477 223
e 478 116
e 478 272
e 478 301
e 478 317
e 478 349
e 479 108
e 479 242
e 479 257
e 479 437
e 479 463
e 480 204
e 480 292
e 480 292
e 480 306
e 480 448
e 481 120
e 481 181
e 481 347
e 481 490
e 481 499
e 482 6
e 482 31
e 482 179
e 482 312
e 482 406
e 483 205
e 483 312
e 483 398
e 483 446
e 483 478
e 484 101
e 484 115
e 484 180
e 484 246
e 484 436
e 485 69
e 485 159
e 485 174
e 485 191
e 485 327
e 486 94
e 486 189
e 486 306
e 486 369
e 486 451
e 487 183
e 487 207
e 487 326
e 487 335
e 487 423
e 488 1
e 488 155
e 488 261
e 488 469
e 488 493
e 489 33
e 489 112
e 489 355
e 489 458
e 489 495
e 490 185
e 490 215
e 490 344
e 490 419
e 490 500
e 491 49
e 491 82
e 491 250
e 491 274
e 491 322
e 492 122
e 492 185
e 492 195
e 492 197
e 492 305
e 493 22
e 493 44
e 493 369
e 493 373
e 493 387
e 494 5
e 494 93
e 494 128
e 494 138
e 494 472
e 495 30
e 495 36
e 495 219
e 495 324
e 495 453
e 496 7
e 496 280
e 496 316
e 496 389
e 496 422
e 497 112
e 497 231
e 497 274
e 497 298
e 497 421
e 498 125
e 498 154
e 498 216
e 498 265
e 498 438
e 499 63
e 499 271
e 499 298
e 499 374
e 499 411
e 500 105
e 500 232
e 500 368
e 500 480
e 500 494
